(set-logic QF_UF)
(declare-fun A0 () Bool)
(declare-fun A2 () Bool)
(declare-fun A3 () Bool)
(declare-fun A4 () Bool)
(declare-fun A5 () Bool)
(declare-fun A6 () Bool)
(declare-fun A7 () Bool)
(declare-fun A8 () Bool)
(declare-fun A9 () Bool)
(declare-fun A10 () Bool)
(declare-fun A11 () Bool)
(declare-fun A12 () Bool)
(declare-fun A13 () Bool)
(declare-fun A14 () Bool)
(declare-fun A15 () Bool)
(declare-fun A16 () Bool)
(declare-fun A17 () Bool)
(declare-fun A18 () Bool)
(declare-fun A19 () Bool)
(declare-fun A20 () Bool)
(declare-fun A21 () Bool)
(declare-fun A22 () Bool)
(declare-fun A23 () Bool)
(declare-fun A24 () Bool)
(assert (let ((.def_0 (not A13))) (let ((.def_1 (or .def_0 A2))) (let ((.def_2 (not .def_1))) (let ((.def_3 (= A7 A16))) (let ((.def_4 (and .def_3 .def_2))) (let ((.def_5 (not A23))) (let ((.def_6 (or A9 .def_5))) (let ((.def_7 (not A24))) (let ((.def_8 (or .def_7 A10))) (let ((.def_9 (not .def_8))) (let ((.def_10 (and .def_9 .def_6))) (let ((.def_11 (and .def_10 .def_4))) (let ((.def_12 (not .def_11))) (let ((.def_13 (not A15))) (let ((.def_14 (or .def_13 A10))) (let ((.def_15 (not .def_14))) (let ((.def_16 (not A18))) (let ((.def_17 (not A5))) (let ((.def_18 (= .def_17 .def_16))) (let ((.def_19 (and .def_18 .def_15))) (let ((.def_20 (not .def_19))) (let ((.def_21 (not A22))) (let ((.def_22 (or .def_7 .def_21))) (let ((.def_23 (not .def_22))) (let ((.def_24 (not A7))) (let ((.def_25 (not A19))) (let ((.def_26 (= .def_25 .def_24))) (let ((.def_27 (and .def_26 .def_23))) (let ((.def_28 (and .def_27 .def_20))) (let ((.def_29 (and .def_28 .def_12))) (let ((.def_30 (not A6))) (let ((.def_31 (and .def_30 .def_25))) (let ((.def_32 (not .def_31))) (let ((.def_33 (not A3))) (let ((.def_34 (or .def_7 .def_33))) (let ((.def_35 (not .def_34))) (let ((.def_36 (= .def_35 .def_32))) (let ((.def_37 (not A8))) (let ((.def_38 (and .def_33 .def_37))) (let ((.def_39 (not .def_38))) (let ((.def_40 (or A4 .def_24))) (let ((.def_41 (or .def_40 .def_39))) (let ((.def_42 (and .def_41 .def_36))) (let ((.def_43 (not A17))) (let ((.def_44 (= A12 .def_43))) (let ((.def_45 (not .def_44))) (let ((.def_46 (and A5 A7))) (let ((.def_47 (not .def_46))) (let ((.def_48 (= .def_47 .def_45))) (let ((.def_49 (not .def_48))) (let ((.def_50 (and .def_33 A8))) (let ((.def_51 (not .def_50))) (let ((.def_52 (or .def_43 A14))) (let ((.def_53 (not .def_52))) (let ((.def_54 (or .def_53 .def_51))) (let ((.def_55 (not .def_54))) (let ((.def_56 (= .def_55 .def_49))) (let ((.def_57 (or .def_56 .def_42))) (let ((.def_58 (not .def_57))) (let ((.def_59 (or .def_58 .def_29))) (let ((.def_60 (not .def_59))) (let ((.def_61 (or A19 A20))) (let ((.def_62 (or A6 A3))) (let ((.def_63 (not .def_62))) (let ((.def_64 (or .def_63 .def_61))) (let ((.def_65 (not .def_64))) (let ((.def_66 (or A15 .def_43))) (let ((.def_67 (not .def_66))) (let ((.def_68 (and A23 A12))) (let ((.def_69 (and .def_68 .def_67))) (let ((.def_70 (or .def_69 .def_65))) (let ((.def_71 (not A14))) (let ((.def_72 (or .def_37 .def_71))) (let ((.def_73 (not A4))) (let ((.def_74 (and .def_73 .def_5))) (let ((.def_75 (and .def_74 .def_72))) (let ((.def_76 (not .def_75))) (let ((.def_77 (not A11))) (let ((.def_78 (not A16))) (let ((.def_79 (and .def_78 .def_77))) (let ((.def_80 (and A22 A2))) (let ((.def_81 (or .def_80 .def_79))) (let ((.def_82 (or .def_81 .def_76))) (let ((.def_83 (not .def_82))) (let ((.def_84 (and .def_83 .def_70))) (let ((.def_85 (or A3 A8))) (let ((.def_86 (not .def_85))) (let ((.def_87 (or A10 .def_30))) (let ((.def_88 (and .def_87 .def_86))) (let ((.def_89 (not A21))) (let ((.def_90 (or .def_89 A7))) (let ((.def_91 (and A10 A16))) (let ((.def_92 (and .def_91 .def_90))) (let ((.def_93 (not .def_92))) (let ((.def_94 (and .def_93 .def_88))) (let ((.def_95 (not .def_94))) (let ((.def_96 (and A17 .def_16))) (let ((.def_97 (not .def_96))) (let ((.def_98 (or .def_24 .def_33))) (let ((.def_99 (and .def_98 .def_97))) (let ((.def_100 (or A3 A20))) (let ((.def_101 (not .def_100))) (let ((.def_102 (or A4 A0))) (let ((.def_103 (and .def_102 .def_101))) (let ((.def_104 (or .def_103 .def_99))) (let ((.def_105 (or .def_104 .def_95))) (let ((.def_106 (and .def_105 .def_84))) (let ((.def_107 (or .def_106 .def_60))) .def_107)))))))))))))))))))))))))))))))))))))))))))))))))))))))))))))))))))))))))))))))))))))))))))))))))))))))))))))
(check-sat)
